<?xml version = "1.0" standalone="yes"?>
<!-- This file has been generated by DOcplex version 2.25.236  -->
<CPLEXSolution version="1.0">
 <header
   problemName="LotSizing"
   objectiveValue="1150"
  />
 <variables>
  <variable name="z" index="0" value="1150.00000"/>
  <variable name="x_1" index="2" value="100.00000"/>
  <variable name="x_3" index="4" value="350.00000"/>
  <variable name="x_7" index="8" value="100.00000"/>
  <variable name="y_1" index="10" value="1.00000"/>
  <variable name="y_3" index="12" value="1.00000"/>
  <variable name="y_7" index="16" value="1.00000"/>
  <variable name="i_3" index="20" value="150.00000"/>
  <variable name="i_4" index="21" value="100.00000"/>
 </variables>
</CPLEXSolution>
